c
c start with comments
c
p cnf 42 33
31 -21 3 0
32 -28 -40 0
3 -14 1 0
-6 -43 0
11 6 -34 -33 -26 0
16 -9 0
8 12 0
-42 43 0
19 -35 0
13 37 0
41 -33 30 0
-24 -37 0
-20 25 -15 0
-33 21 -18 0
-2 -41 0
22 28 -26 32 27 0
-19 36 -8 0
38 42 0
9 18 0
28 -33 -40 0
39 -7 0
5 -4 32 0
-40 -20 -14 -20 -11 6 0
-19 -20 -14 -36 0
10 -32 0
35 -16 0
-3 33 0
40 4 0
-29 -10 0
25 -36 31 -5 0
24 -22 0
20 -12 0
-17 14 0